Maximize
  - 5.2751617651575 edge_0_1_0_0 - 4.3102232195799 edge_0_3_0_0
   - 3.7374451157979 edge_0_5_0_0 - 3.7495846141416 edge_0_8_0_0
   - 4.8414461438778 edge_0_11_0_0 - 4.2826495318614 edge_0_15_0_0
   - 3.0106391258554 edge_0_18_0_0 - 0.9391583095854 edge_0_19_0_0
   - 0.1669342244736806 edge_1_2_0_0 - 0.7867918021651729 edge_1_3_0_0
   - 0.8636520698738795 edge_1_4_0_0 - 0.5866756302407679 edge_1_5_0_0
   - 0.5446554630351297 edge_1_12_0_0 - 0.6480973428782589 edge_1_13_0_0
   - 0.0908631893701504 edge_1_16_0_0 - 0.6804084740271177 edge_1_19_0_0
   - 0.87992957808037 edge_1_20_0_0 + 0.6469954488732954 edge_1_24_0_0
   + 0.1191961286789591 edge_2_1_0_0 - 0.6035267022657338 edge_2_4_0_0
   + 0.0435112370055403 edge_2_5_0_0 - 1.349003764876189 edge_2_24_0_0
   + 1.104317624907682 edge_3_1_0_0 + 2.844115436278949 edge_3_2_0_0
   + 0.4962623202768345 edge_3_4_0_0 + 2.204516823060358 edge_3_5_0_0
   + 0.7001171857305473 edge_3_8_0_0 + 0.6854519330094808 edge_3_11_0_0
   + 1.005190215790922 edge_3_12_0_0 + 0.1660522088985503 edge_3_13_0_0
   + 0.2594436218816214 edge_3_15_0_0 + 0.8442908652465402 edge_3_16_0_0
   - 0.6879530841401552 edge_3_17_0_0 - 0.2156272723607198 edge_3_18_0_0
   - 0.0202744700469278 edge_3_19_0_0 - 1.478284067993689 edge_3_20_0_0
   - 0.6125624155328536 edge_3_21_0_0 - 0.3195532072867313 edge_3_22_0_0
   + 0.7802027136533494 edge_3_24_0_0 + 0.0838814074828638 edge_4_8_0_0
   - 0.5170825716739703 edge_5_1_0_0 - 0.1460653943425706 edge_5_2_0_0
   - 0.0799987841986124 edge_5_3_0_0 + 2.372990157244911 edge_5_4_0_0
   + 0.1257372642228217 edge_5_8_0_0 - 0.2690754765323751 edge_5_11_0_0
   - 0.3375612420009551 edge_5_12_0_0 + 0.0238205985265607 edge_5_13_0_0
   - 0.5161396930748908 edge_5_15_0_0 - 0.0323102751054053 edge_5_16_0_0
   - 0.683464100783524 edge_5_17_0_0 - 0.4333806686056058 edge_5_18_0_0
   - 0.3050712486911721 edge_5_19_0_0 - 0.9868355569390899 edge_5_20_0_0
   - 0.833906078812501 edge_5_21_0_0 - 0.6115565404537316 edge_8_1_0_0
   - 0.6112463683571975 edge_8_3_0_0 + 0.3627213948770509 edge_8_4_0_0
   - 0.1040137812610605 edge_8_5_0_0 + 0.0985767625177089 edge_8_11_0_0
   - 0.00481203265839189 edge_8_12_0_0 - 0.536362753990419 edge_8_15_0_0
   - 0.2101314234667487 edge_8_16_0_0 + 0.9624454830060124 edge_9_11_0_0
   - 0.1598624497786775 edge_9_12_0_0 - 0.9342571341343587 edge_9_13_0_0
   - 0.8527616966140085 edge_11_1_0_0 - 0.9129546905298762 edge_11_3_0_0
   - 0.2165336669959153 edge_11_4_0_0 - 0.5971094996995927 edge_11_5_0_0
   + 0.2699160014554693 edge_11_8_0_0 + 3.043570777432826 edge_11_9_0_0
   + 1.417514070796217 edge_11_12_0_0 + 0.288323730850947 edge_11_13_0_0
   + 0.5015137750442753 edge_11_15_0_0 + 0.2213675650200083 edge_11_16_0_0
   - 0.845910305127588 edge_11_17_0_0 - 0.4704867997611296 edge_11_18_0_0
   + 0.0992739781880825 edge_11_19_0_0 - 1.336160381005622 edge_11_21_0_0
   - 0.5502403335905052 edge_11_22_0_0 - 0.6545551816705393 edge_11_24_0_0
   - 0.3190177675376171 edge_12_13_0_0 - 0.6264124477295345 edge_12_15_0_0
   - 0.0701664750797541 edge_13_17_0_0 - 0.3079865034109602 edge_13_19_0_0
   - 1.315831543898492 edge_15_1_0_0 - 0.3816795117162123 edge_15_3_0_0
   - 0.0591782824787129 edge_15_4_0_0 - 0.2666029667394615 edge_15_5_0_0
   - 0.0422982022723613 edge_15_8_0_0 + 0.9725003070745024 edge_15_9_0_0
   + 0.4710944328416408 edge_15_11_0_0 + 0.4693116940876367 edge_15_12_0_0
   + 2.357940338132531 edge_15_13_0_0 + 1.447452930625365 edge_15_16_0_0
   + 0.7889974732431707 edge_15_17_0_0 + 0.3503653377708266 edge_15_18_0_0
   + 0.5240262291973986 edge_15_19_0_0 + 0.0459860460859853 edge_15_20_0_0
   + 0.4484919242048188 edge_15_21_0_0 - 0.1599097677713641 edge_15_22_0_0
   + 0.4302000119582611 edge_15_24_0_0 - 0.2490304764753758 edge_17_18_0_0
   - 0.8731170419191265 edge_18_3_0_0 - 0.8946223635311276 edge_18_11_0_0
   - 0.5911000920049676 edge_18_12_0_0 - 0.4642049422380489 edge_18_13_0_0
   - 0.3032458282637303 edge_18_15_0_0 - 0.0450969092352236 edge_18_16_0_0
   + 0.0602326189206723 edge_18_17_0_0 + 0.2592767193599738 edge_18_19_0_0
   - 0.0360828092954995 edge_18_20_0_0 + 0.0783111927382458 edge_18_21_0_0
   - 0.1443451304447798 edge_18_22_0_0 - 0.2256183235279792 edge_18_24_0_0
   + 0.4085342435241842 edge_19_1_0_0 - 0.0263411519488999 edge_19_3_0_0
   - 0.1587204192242185 edge_19_4_0_0 + 0.0116569998896199 edge_19_5_0_0
   + 0.0818823690350663 edge_19_8_0_0 - 0.0030360322898355 edge_19_9_0_0
   + 0.00498579663491897 edge_19_11_0_0 - 0.171708073162241 edge_19_12_0_0
   + 0.337070169416223 edge_19_13_0_0 + 0.5862134771880152 edge_19_15_0_0
   + 0.3537187600050559 edge_19_16_0_0 + 0.4833303647333363 edge_19_17_0_0
   + 0.8158861194768258 edge_19_18_0_0 + 0.754785112384682 edge_19_19_0_0
   + 0.0663837039821088 edge_19_20_0_0 + 0.316379289525543 edge_19_21_0_0
   + 0.2702409575103249 edge_19_22_0_0 + 1.035017678866235 edge_19_24_0_0
   + 0.0369074556290173 edge_20_21_0_0 - 0.106318739945382 edge_20_22_0_0
   - 1.226098115764465 edge_21_3_0_0 - 0.7482673546933974 edge_21_11_0_0
   - 0.9646530413482116 edge_21_15_0_0 - 0.3644835720311656 edge_21_16_0_0
   - 0.1581161929467147 edge_21_17_0_0 - 0.0827671215431165 edge_21_18_0_0
   + 0.1146597042634927 edge_21_19_0_0 + 0.7434801162652876 edge_21_20_0_0
   + 0.3348426145835637 edge_21_22_0_0 + 0.7467501296361563 edge_21_24_0_0
   - 0.7406097589397473 edge_22_1_0_0 - 0.0959924106991989 edge_22_17_0_0
   - 0.1804800140582937 edge_22_18_0_0 + 0.19474751388924 edge_22_19_0_0
   + 0.2023694242102913 edge_22_20_0_0 + 0.2994578290359546 edge_22_21_0_0
   + 0.5038335357320652 edge_22_24_0_0 - 0.5473105762711231 edge_24_22_0_0
Subject To
 one_parent_1: edge_0_1_0_0 + edge_2_1_0_0 + edge_3_1_0_0 + edge_5_1_0_0
   + edge_8_1_0_0 + edge_11_1_0_0 + edge_15_1_0_0 + edge_19_1_0_0
   + edge_22_1_0_0 = 1
 consume_one_flow_unit_1: flow_0_1_0_0 - flow_1_2_0_0 - flow_1_3_0_0
   - flow_1_4_0_0 - flow_1_5_0_0 - flow_1_12_0_0 - flow_1_13_0_0
   - flow_1_16_0_0 - flow_1_19_0_0 - flow_1_20_0_0 - flow_1_24_0_0
   + flow_2_1_0_0 + flow_3_1_0_0 + flow_5_1_0_0 + flow_8_1_0_0
   + flow_11_1_0_0 + flow_15_1_0_0 + flow_19_1_0_0 + flow_22_1_0_0 = 1
 one_parent_2: edge_1_2_0_0 + edge_3_2_0_0 + edge_5_2_0_0 = 1
 consume_one_flow_unit_2: flow_1_2_0_0 - flow_2_1_0_0 - flow_2_4_0_0
   - flow_2_5_0_0 - flow_2_24_0_0 + flow_3_2_0_0 + flow_5_2_0_0 = 1
 one_parent_3: edge_0_3_0_0 + edge_1_3_0_0 + edge_5_3_0_0 + edge_8_3_0_0
   + edge_11_3_0_0 + edge_15_3_0_0 + edge_18_3_0_0 + edge_19_3_0_0
   + edge_21_3_0_0 = 1
 consume_one_flow_unit_3: flow_0_3_0_0 + flow_1_3_0_0 - flow_3_1_0_0
   - flow_3_2_0_0 - flow_3_4_0_0 - flow_3_5_0_0 - flow_3_8_0_0
   - flow_3_11_0_0 - flow_3_12_0_0 - flow_3_13_0_0 - flow_3_15_0_0
   - flow_3_16_0_0 - flow_3_17_0_0 - flow_3_18_0_0 - flow_3_19_0_0
   - flow_3_20_0_0 - flow_3_21_0_0 - flow_3_22_0_0 - flow_3_24_0_0
   + flow_5_3_0_0 + flow_8_3_0_0 + flow_11_3_0_0 + flow_15_3_0_0
   + flow_18_3_0_0 + flow_19_3_0_0 + flow_21_3_0_0 = 1
 one_parent_4: edge_1_4_0_0 + edge_2_4_0_0 + edge_3_4_0_0 + edge_5_4_0_0
   + edge_8_4_0_0 + edge_11_4_0_0 + edge_15_4_0_0 + edge_19_4_0_0 = 1
 consume_one_flow_unit_4: flow_1_4_0_0 + flow_2_4_0_0 + flow_3_4_0_0
   - flow_4_8_0_0 + flow_5_4_0_0 + flow_8_4_0_0 + flow_11_4_0_0
   + flow_15_4_0_0 + flow_19_4_0_0 = 1
 one_parent_5: edge_0_5_0_0 + edge_1_5_0_0 + edge_2_5_0_0 + edge_3_5_0_0
   + edge_8_5_0_0 + edge_11_5_0_0 + edge_15_5_0_0 + edge_19_5_0_0 = 1
 consume_one_flow_unit_5: flow_0_5_0_0 + flow_1_5_0_0 + flow_2_5_0_0
   + flow_3_5_0_0 - flow_5_1_0_0 - flow_5_2_0_0 - flow_5_3_0_0
   - flow_5_4_0_0 - flow_5_8_0_0 - flow_5_11_0_0 - flow_5_12_0_0
   - flow_5_13_0_0 - flow_5_15_0_0 - flow_5_16_0_0 - flow_5_17_0_0
   - flow_5_18_0_0 - flow_5_19_0_0 - flow_5_20_0_0 - flow_5_21_0_0
   + flow_8_5_0_0 + flow_11_5_0_0 + flow_15_5_0_0 + flow_19_5_0_0 = 1
 one_parent_6: = 1
 consume_one_flow_unit_6: = 1
 one_parent_7: = 1
 consume_one_flow_unit_7: = 1
 one_parent_8: edge_0_8_0_0 + edge_3_8_0_0 + edge_4_8_0_0 + edge_5_8_0_0
   + edge_11_8_0_0 + edge_15_8_0_0 + edge_19_8_0_0 = 1
 consume_one_flow_unit_8: flow_0_8_0_0 + flow_3_8_0_0 + flow_4_8_0_0
   + flow_5_8_0_0 - flow_8_1_0_0 - flow_8_3_0_0 - flow_8_4_0_0
   - flow_8_5_0_0 - flow_8_11_0_0 - flow_8_12_0_0 - flow_8_15_0_0
   - flow_8_16_0_0 + flow_11_8_0_0 + flow_15_8_0_0 + flow_19_8_0_0 = 1
 one_parent_9: edge_11_9_0_0 + edge_15_9_0_0 + edge_19_9_0_0 = 1
 consume_one_flow_unit_9: - flow_9_11_0_0 - flow_9_12_0_0 - flow_9_13_0_0
   + flow_11_9_0_0 + flow_15_9_0_0 + flow_19_9_0_0 = 1
 one_parent_10: = 1
 consume_one_flow_unit_10: = 1
 one_parent_11: edge_0_11_0_0 + edge_3_11_0_0 + edge_5_11_0_0
   + edge_8_11_0_0 + edge_9_11_0_0 + edge_15_11_0_0 + edge_18_11_0_0
   + edge_19_11_0_0 + edge_21_11_0_0 = 1
 consume_one_flow_unit_11: flow_0_11_0_0 + flow_3_11_0_0 + flow_5_11_0_0
   + flow_8_11_0_0 + flow_9_11_0_0 - flow_11_1_0_0 - flow_11_3_0_0
   - flow_11_4_0_0 - flow_11_5_0_0 - flow_11_8_0_0 - flow_11_9_0_0
   - flow_11_12_0_0 - flow_11_13_0_0 - flow_11_15_0_0 - flow_11_16_0_0
   - flow_11_17_0_0 - flow_11_18_0_0 - flow_11_19_0_0 - flow_11_21_0_0
   - flow_11_22_0_0 - flow_11_24_0_0 + flow_15_11_0_0 + flow_18_11_0_0
   + flow_19_11_0_0 + flow_21_11_0_0 = 1
 one_parent_12: edge_1_12_0_0 + edge_3_12_0_0 + edge_5_12_0_0
   + edge_8_12_0_0 + edge_9_12_0_0 + edge_11_12_0_0 + edge_15_12_0_0
   + edge_18_12_0_0 + edge_19_12_0_0 = 1
 consume_one_flow_unit_12: flow_1_12_0_0 + flow_3_12_0_0 + flow_5_12_0_0
   + flow_8_12_0_0 + flow_9_12_0_0 + flow_11_12_0_0 - flow_12_13_0_0
   - flow_12_15_0_0 + flow_15_12_0_0 + flow_18_12_0_0 + flow_19_12_0_0 = 1
 one_parent_13: edge_1_13_0_0 + edge_3_13_0_0 + edge_5_13_0_0
   + edge_9_13_0_0 + edge_11_13_0_0 + edge_12_13_0_0 + edge_15_13_0_0
   + edge_18_13_0_0 + edge_19_13_0_0 = 1
 consume_one_flow_unit_13: flow_1_13_0_0 + flow_3_13_0_0 + flow_5_13_0_0
   + flow_9_13_0_0 + flow_11_13_0_0 + flow_12_13_0_0 - flow_13_17_0_0
   - flow_13_19_0_0 + flow_15_13_0_0 + flow_18_13_0_0 + flow_19_13_0_0 = 1
 one_parent_14: = 1
 consume_one_flow_unit_14: = 1
 one_parent_15: edge_0_15_0_0 + edge_3_15_0_0 + edge_5_15_0_0
   + edge_8_15_0_0 + edge_11_15_0_0 + edge_12_15_0_0 + edge_18_15_0_0
   + edge_19_15_0_0 + edge_21_15_0_0 = 1
 consume_one_flow_unit_15: flow_0_15_0_0 + flow_3_15_0_0 + flow_5_15_0_0
   + flow_8_15_0_0 + flow_11_15_0_0 + flow_12_15_0_0 - flow_15_1_0_0
   - flow_15_3_0_0 - flow_15_4_0_0 - flow_15_5_0_0 - flow_15_8_0_0
   - flow_15_9_0_0 - flow_15_11_0_0 - flow_15_12_0_0 - flow_15_13_0_0
   - flow_15_16_0_0 - flow_15_17_0_0 - flow_15_18_0_0 - flow_15_19_0_0
   - flow_15_20_0_0 - flow_15_21_0_0 - flow_15_22_0_0 - flow_15_24_0_0
   + flow_18_15_0_0 + flow_19_15_0_0 + flow_21_15_0_0 = 1
 one_parent_16: edge_1_16_0_0 + edge_3_16_0_0 + edge_5_16_0_0
   + edge_8_16_0_0 + edge_11_16_0_0 + edge_15_16_0_0 + edge_18_16_0_0
   + edge_19_16_0_0 + edge_21_16_0_0 = 1
 consume_one_flow_unit_16: flow_1_16_0_0 + flow_3_16_0_0 + flow_5_16_0_0
   + flow_8_16_0_0 + flow_11_16_0_0 + flow_15_16_0_0 + flow_18_16_0_0
   + flow_19_16_0_0 + flow_21_16_0_0 = 1
 one_parent_17: edge_3_17_0_0 + edge_5_17_0_0 + edge_11_17_0_0
   + edge_13_17_0_0 + edge_15_17_0_0 + edge_18_17_0_0 + edge_19_17_0_0
   + edge_21_17_0_0 + edge_22_17_0_0 = 1
 consume_one_flow_unit_17: flow_3_17_0_0 + flow_5_17_0_0 + flow_11_17_0_0
   + flow_13_17_0_0 + flow_15_17_0_0 - flow_17_18_0_0 + flow_18_17_0_0
   + flow_19_17_0_0 + flow_21_17_0_0 + flow_22_17_0_0 = 1
 one_parent_18: edge_0_18_0_0 + edge_3_18_0_0 + edge_5_18_0_0
   + edge_11_18_0_0 + edge_15_18_0_0 + edge_17_18_0_0 + edge_19_18_0_0
   + edge_21_18_0_0 + edge_22_18_0_0 = 1
 consume_one_flow_unit_18: flow_0_18_0_0 + flow_3_18_0_0 + flow_5_18_0_0
   + flow_11_18_0_0 + flow_15_18_0_0 + flow_17_18_0_0 - flow_18_3_0_0
   - flow_18_11_0_0 - flow_18_12_0_0 - flow_18_13_0_0 - flow_18_15_0_0
   - flow_18_16_0_0 - flow_18_17_0_0 - flow_18_19_0_0 - flow_18_20_0_0
   - flow_18_21_0_0 - flow_18_22_0_0 - flow_18_24_0_0 + flow_19_18_0_0
   + flow_21_18_0_0 + flow_22_18_0_0 = 1
 one_parent_19: edge_0_19_0_0 + edge_1_19_0_0 + edge_3_19_0_0
   + edge_5_19_0_0 + edge_11_19_0_0 + edge_13_19_0_0 + edge_15_19_0_0
   + edge_18_19_0_0 + edge_19_19_0_0 + edge_21_19_0_0 + edge_22_19_0_0 = 1
 consume_one_flow_unit_19: flow_0_19_0_0 + flow_1_19_0_0 + flow_3_19_0_0
   + flow_5_19_0_0 + flow_11_19_0_0 + flow_13_19_0_0 + flow_15_19_0_0
   + flow_18_19_0_0 - flow_19_1_0_0 - flow_19_3_0_0 - flow_19_4_0_0
   - flow_19_5_0_0 - flow_19_8_0_0 - flow_19_9_0_0 - flow_19_11_0_0
   - flow_19_12_0_0 - flow_19_13_0_0 - flow_19_15_0_0 - flow_19_16_0_0
   - flow_19_17_0_0 - flow_19_18_0_0 - flow_19_20_0_0 - flow_19_21_0_0
   - flow_19_22_0_0 - flow_19_24_0_0 + flow_21_19_0_0 + flow_22_19_0_0 = 1
 one_parent_20: edge_1_20_0_0 + edge_3_20_0_0 + edge_5_20_0_0
   + edge_15_20_0_0 + edge_18_20_0_0 + edge_19_20_0_0 + edge_21_20_0_0
   + edge_22_20_0_0 = 1
 consume_one_flow_unit_20: flow_1_20_0_0 + flow_3_20_0_0 + flow_5_20_0_0
   + flow_15_20_0_0 + flow_18_20_0_0 + flow_19_20_0_0 - flow_20_21_0_0
   - flow_20_22_0_0 + flow_21_20_0_0 + flow_22_20_0_0 = 1
 one_parent_21: edge_3_21_0_0 + edge_5_21_0_0 + edge_11_21_0_0
   + edge_15_21_0_0 + edge_18_21_0_0 + edge_19_21_0_0 + edge_20_21_0_0
   + edge_22_21_0_0 = 1
 consume_one_flow_unit_21: flow_3_21_0_0 + flow_5_21_0_0 + flow_11_21_0_0
   + flow_15_21_0_0 + flow_18_21_0_0 + flow_19_21_0_0 + flow_20_21_0_0
   - flow_21_3_0_0 - flow_21_11_0_0 - flow_21_15_0_0 - flow_21_16_0_0
   - flow_21_17_0_0 - flow_21_18_0_0 - flow_21_19_0_0 - flow_21_20_0_0
   - flow_21_22_0_0 - flow_21_24_0_0 + flow_22_21_0_0 = 1
 one_parent_22: edge_3_22_0_0 + edge_11_22_0_0 + edge_15_22_0_0
   + edge_18_22_0_0 + edge_19_22_0_0 + edge_20_22_0_0 + edge_21_22_0_0
   + edge_24_22_0_0 = 1
 consume_one_flow_unit_22: flow_3_22_0_0 + flow_11_22_0_0 + flow_15_22_0_0
   + flow_18_22_0_0 + flow_19_22_0_0 + flow_20_22_0_0 + flow_21_22_0_0
   - flow_22_1_0_0 - flow_22_17_0_0 - flow_22_18_0_0 - flow_22_19_0_0
   - flow_22_20_0_0 - flow_22_21_0_0 - flow_22_24_0_0 + flow_24_22_0_0 = 1
 one_parent_23: = 1
 consume_one_flow_unit_23: = 1
 one_parent_24: edge_1_24_0_0 + edge_2_24_0_0 + edge_3_24_0_0
   + edge_11_24_0_0 + edge_15_24_0_0 + edge_18_24_0_0 + edge_19_24_0_0
   + edge_21_24_0_0 + edge_22_24_0_0 = 1
 consume_one_flow_unit_24: flow_1_24_0_0 + flow_2_24_0_0 + flow_3_24_0_0
   + flow_11_24_0_0 + flow_15_24_0_0 + flow_18_24_0_0 + flow_19_24_0_0
   + flow_21_24_0_0 + flow_22_24_0_0 - flow_24_22_0_0 = 1
 root_flow: flow_0_1_0_0 + flow_0_3_0_0 + flow_0_5_0_0 + flow_0_8_0_0
   + flow_0_11_0_0 + flow_0_15_0_0 + flow_0_18_0_0 + flow_0_19_0_0 = 24
 inactive_no_flow_0_1_0_0: flow_0_1_0_0 - 1000 edge_0_1_0_0 <= 0
 inactive_no_flow_0_3_0_0: flow_0_3_0_0 - 1000 edge_0_3_0_0 <= 0
 inactive_no_flow_0_5_0_0: flow_0_5_0_0 - 1000 edge_0_5_0_0 <= 0
 inactive_no_flow_0_8_0_0: flow_0_8_0_0 - 1000 edge_0_8_0_0 <= 0
 inactive_no_flow_0_11_0_0: flow_0_11_0_0 - 1000 edge_0_11_0_0 <= 0
 inactive_no_flow_0_15_0_0: flow_0_15_0_0 - 1000 edge_0_15_0_0 <= 0
 inactive_no_flow_0_18_0_0: flow_0_18_0_0 - 1000 edge_0_18_0_0 <= 0
 inactive_no_flow_0_19_0_0: flow_0_19_0_0 - 1000 edge_0_19_0_0 <= 0
 inactive_no_flow_1_2_0_0: flow_1_2_0_0 - 1000 edge_1_2_0_0 <= 0
 inactive_no_flow_1_3_0_0: flow_1_3_0_0 - 1000 edge_1_3_0_0 <= 0
 inactive_no_flow_1_4_0_0: flow_1_4_0_0 - 1000 edge_1_4_0_0 <= 0
 inactive_no_flow_1_5_0_0: flow_1_5_0_0 - 1000 edge_1_5_0_0 <= 0
 inactive_no_flow_1_12_0_0: flow_1_12_0_0 - 1000 edge_1_12_0_0 <= 0
 inactive_no_flow_1_13_0_0: flow_1_13_0_0 - 1000 edge_1_13_0_0 <= 0
 inactive_no_flow_1_16_0_0: flow_1_16_0_0 - 1000 edge_1_16_0_0 <= 0
 inactive_no_flow_1_19_0_0: flow_1_19_0_0 - 1000 edge_1_19_0_0 <= 0
 inactive_no_flow_1_20_0_0: flow_1_20_0_0 - 1000 edge_1_20_0_0 <= 0
 inactive_no_flow_1_24_0_0: flow_1_24_0_0 - 1000 edge_1_24_0_0 <= 0
 inactive_no_flow_2_1_0_0: flow_2_1_0_0 - 1000 edge_2_1_0_0 <= 0
 inactive_no_flow_2_4_0_0: flow_2_4_0_0 - 1000 edge_2_4_0_0 <= 0
 inactive_no_flow_2_5_0_0: flow_2_5_0_0 - 1000 edge_2_5_0_0 <= 0
 inactive_no_flow_2_24_0_0: flow_2_24_0_0 - 1000 edge_2_24_0_0 <= 0
 inactive_no_flow_3_1_0_0: flow_3_1_0_0 - 1000 edge_3_1_0_0 <= 0
 inactive_no_flow_3_2_0_0: flow_3_2_0_0 - 1000 edge_3_2_0_0 <= 0
 inactive_no_flow_3_4_0_0: flow_3_4_0_0 - 1000 edge_3_4_0_0 <= 0
 inactive_no_flow_3_5_0_0: flow_3_5_0_0 - 1000 edge_3_5_0_0 <= 0
 inactive_no_flow_3_8_0_0: flow_3_8_0_0 - 1000 edge_3_8_0_0 <= 0
 inactive_no_flow_3_11_0_0: flow_3_11_0_0 - 1000 edge_3_11_0_0 <= 0
 inactive_no_flow_3_12_0_0: flow_3_12_0_0 - 1000 edge_3_12_0_0 <= 0
 inactive_no_flow_3_13_0_0: flow_3_13_0_0 - 1000 edge_3_13_0_0 <= 0
 inactive_no_flow_3_15_0_0: flow_3_15_0_0 - 1000 edge_3_15_0_0 <= 0
 inactive_no_flow_3_16_0_0: flow_3_16_0_0 - 1000 edge_3_16_0_0 <= 0
 inactive_no_flow_3_17_0_0: flow_3_17_0_0 - 1000 edge_3_17_0_0 <= 0
 inactive_no_flow_3_18_0_0: flow_3_18_0_0 - 1000 edge_3_18_0_0 <= 0
 inactive_no_flow_3_19_0_0: flow_3_19_0_0 - 1000 edge_3_19_0_0 <= 0
 inactive_no_flow_3_20_0_0: flow_3_20_0_0 - 1000 edge_3_20_0_0 <= 0
 inactive_no_flow_3_21_0_0: flow_3_21_0_0 - 1000 edge_3_21_0_0 <= 0
 inactive_no_flow_3_22_0_0: flow_3_22_0_0 - 1000 edge_3_22_0_0 <= 0
 inactive_no_flow_3_24_0_0: flow_3_24_0_0 - 1000 edge_3_24_0_0 <= 0
 inactive_no_flow_4_8_0_0: flow_4_8_0_0 - 1000 edge_4_8_0_0 <= 0
 inactive_no_flow_5_1_0_0: flow_5_1_0_0 - 1000 edge_5_1_0_0 <= 0
 inactive_no_flow_5_2_0_0: flow_5_2_0_0 - 1000 edge_5_2_0_0 <= 0
 inactive_no_flow_5_3_0_0: flow_5_3_0_0 - 1000 edge_5_3_0_0 <= 0
 inactive_no_flow_5_4_0_0: flow_5_4_0_0 - 1000 edge_5_4_0_0 <= 0
 inactive_no_flow_5_8_0_0: flow_5_8_0_0 - 1000 edge_5_8_0_0 <= 0
 inactive_no_flow_5_11_0_0: flow_5_11_0_0 - 1000 edge_5_11_0_0 <= 0
 inactive_no_flow_5_12_0_0: flow_5_12_0_0 - 1000 edge_5_12_0_0 <= 0
 inactive_no_flow_5_13_0_0: flow_5_13_0_0 - 1000 edge_5_13_0_0 <= 0
 inactive_no_flow_5_15_0_0: flow_5_15_0_0 - 1000 edge_5_15_0_0 <= 0
 inactive_no_flow_5_16_0_0: flow_5_16_0_0 - 1000 edge_5_16_0_0 <= 0
 inactive_no_flow_5_17_0_0: flow_5_17_0_0 - 1000 edge_5_17_0_0 <= 0
 inactive_no_flow_5_18_0_0: flow_5_18_0_0 - 1000 edge_5_18_0_0 <= 0
 inactive_no_flow_5_19_0_0: flow_5_19_0_0 - 1000 edge_5_19_0_0 <= 0
 inactive_no_flow_5_20_0_0: flow_5_20_0_0 - 1000 edge_5_20_0_0 <= 0
 inactive_no_flow_5_21_0_0: flow_5_21_0_0 - 1000 edge_5_21_0_0 <= 0
 inactive_no_flow_8_1_0_0: flow_8_1_0_0 - 1000 edge_8_1_0_0 <= 0
 inactive_no_flow_8_3_0_0: flow_8_3_0_0 - 1000 edge_8_3_0_0 <= 0
 inactive_no_flow_8_4_0_0: flow_8_4_0_0 - 1000 edge_8_4_0_0 <= 0
 inactive_no_flow_8_5_0_0: flow_8_5_0_0 - 1000 edge_8_5_0_0 <= 0
 inactive_no_flow_8_11_0_0: flow_8_11_0_0 - 1000 edge_8_11_0_0 <= 0
 inactive_no_flow_8_12_0_0: flow_8_12_0_0 - 1000 edge_8_12_0_0 <= 0
 inactive_no_flow_8_15_0_0: flow_8_15_0_0 - 1000 edge_8_15_0_0 <= 0
 inactive_no_flow_8_16_0_0: flow_8_16_0_0 - 1000 edge_8_16_0_0 <= 0
 inactive_no_flow_9_11_0_0: flow_9_11_0_0 - 1000 edge_9_11_0_0 <= 0
 inactive_no_flow_9_12_0_0: flow_9_12_0_0 - 1000 edge_9_12_0_0 <= 0
 inactive_no_flow_9_13_0_0: flow_9_13_0_0 - 1000 edge_9_13_0_0 <= 0
 inactive_no_flow_11_1_0_0: flow_11_1_0_0 - 1000 edge_11_1_0_0 <= 0
 inactive_no_flow_11_3_0_0: flow_11_3_0_0 - 1000 edge_11_3_0_0 <= 0
 inactive_no_flow_11_4_0_0: flow_11_4_0_0 - 1000 edge_11_4_0_0 <= 0
 inactive_no_flow_11_5_0_0: flow_11_5_0_0 - 1000 edge_11_5_0_0 <= 0
 inactive_no_flow_11_8_0_0: flow_11_8_0_0 - 1000 edge_11_8_0_0 <= 0
 inactive_no_flow_11_9_0_0: flow_11_9_0_0 - 1000 edge_11_9_0_0 <= 0
 inactive_no_flow_11_12_0_0: flow_11_12_0_0 - 1000 edge_11_12_0_0 <= 0
 inactive_no_flow_11_13_0_0: flow_11_13_0_0 - 1000 edge_11_13_0_0 <= 0
 inactive_no_flow_11_15_0_0: flow_11_15_0_0 - 1000 edge_11_15_0_0 <= 0
 inactive_no_flow_11_16_0_0: flow_11_16_0_0 - 1000 edge_11_16_0_0 <= 0
 inactive_no_flow_11_17_0_0: flow_11_17_0_0 - 1000 edge_11_17_0_0 <= 0
 inactive_no_flow_11_18_0_0: flow_11_18_0_0 - 1000 edge_11_18_0_0 <= 0
 inactive_no_flow_11_19_0_0: flow_11_19_0_0 - 1000 edge_11_19_0_0 <= 0
 inactive_no_flow_11_21_0_0: flow_11_21_0_0 - 1000 edge_11_21_0_0 <= 0
 inactive_no_flow_11_22_0_0: flow_11_22_0_0 - 1000 edge_11_22_0_0 <= 0
 inactive_no_flow_11_24_0_0: flow_11_24_0_0 - 1000 edge_11_24_0_0 <= 0
 inactive_no_flow_12_13_0_0: flow_12_13_0_0 - 1000 edge_12_13_0_0 <= 0
 inactive_no_flow_12_15_0_0: flow_12_15_0_0 - 1000 edge_12_15_0_0 <= 0
 inactive_no_flow_13_17_0_0: flow_13_17_0_0 - 1000 edge_13_17_0_0 <= 0
 inactive_no_flow_13_19_0_0: flow_13_19_0_0 - 1000 edge_13_19_0_0 <= 0
 inactive_no_flow_15_1_0_0: flow_15_1_0_0 - 1000 edge_15_1_0_0 <= 0
 inactive_no_flow_15_3_0_0: flow_15_3_0_0 - 1000 edge_15_3_0_0 <= 0
 inactive_no_flow_15_4_0_0: flow_15_4_0_0 - 1000 edge_15_4_0_0 <= 0
 inactive_no_flow_15_5_0_0: flow_15_5_0_0 - 1000 edge_15_5_0_0 <= 0
 inactive_no_flow_15_8_0_0: flow_15_8_0_0 - 1000 edge_15_8_0_0 <= 0
 inactive_no_flow_15_9_0_0: flow_15_9_0_0 - 1000 edge_15_9_0_0 <= 0
 inactive_no_flow_15_11_0_0: flow_15_11_0_0 - 1000 edge_15_11_0_0 <= 0
 inactive_no_flow_15_12_0_0: flow_15_12_0_0 - 1000 edge_15_12_0_0 <= 0
 inactive_no_flow_15_13_0_0: flow_15_13_0_0 - 1000 edge_15_13_0_0 <= 0
 inactive_no_flow_15_16_0_0: flow_15_16_0_0 - 1000 edge_15_16_0_0 <= 0
 inactive_no_flow_15_17_0_0: flow_15_17_0_0 - 1000 edge_15_17_0_0 <= 0
 inactive_no_flow_15_18_0_0: flow_15_18_0_0 - 1000 edge_15_18_0_0 <= 0
 inactive_no_flow_15_19_0_0: flow_15_19_0_0 - 1000 edge_15_19_0_0 <= 0
 inactive_no_flow_15_20_0_0: flow_15_20_0_0 - 1000 edge_15_20_0_0 <= 0
 inactive_no_flow_15_21_0_0: flow_15_21_0_0 - 1000 edge_15_21_0_0 <= 0
 inactive_no_flow_15_22_0_0: flow_15_22_0_0 - 1000 edge_15_22_0_0 <= 0
 inactive_no_flow_15_24_0_0: flow_15_24_0_0 - 1000 edge_15_24_0_0 <= 0
 inactive_no_flow_17_18_0_0: flow_17_18_0_0 - 1000 edge_17_18_0_0 <= 0
 inactive_no_flow_18_3_0_0: flow_18_3_0_0 - 1000 edge_18_3_0_0 <= 0
 inactive_no_flow_18_11_0_0: flow_18_11_0_0 - 1000 edge_18_11_0_0 <= 0
 inactive_no_flow_18_12_0_0: flow_18_12_0_0 - 1000 edge_18_12_0_0 <= 0
 inactive_no_flow_18_13_0_0: flow_18_13_0_0 - 1000 edge_18_13_0_0 <= 0
 inactive_no_flow_18_15_0_0: flow_18_15_0_0 - 1000 edge_18_15_0_0 <= 0
 inactive_no_flow_18_16_0_0: flow_18_16_0_0 - 1000 edge_18_16_0_0 <= 0
 inactive_no_flow_18_17_0_0: flow_18_17_0_0 - 1000 edge_18_17_0_0 <= 0
 inactive_no_flow_18_19_0_0: flow_18_19_0_0 - 1000 edge_18_19_0_0 <= 0
 inactive_no_flow_18_20_0_0: flow_18_20_0_0 - 1000 edge_18_20_0_0 <= 0
 inactive_no_flow_18_21_0_0: flow_18_21_0_0 - 1000 edge_18_21_0_0 <= 0
 inactive_no_flow_18_22_0_0: flow_18_22_0_0 - 1000 edge_18_22_0_0 <= 0
 inactive_no_flow_18_24_0_0: flow_18_24_0_0 - 1000 edge_18_24_0_0 <= 0
 inactive_no_flow_19_1_0_0: flow_19_1_0_0 - 1000 edge_19_1_0_0 <= 0
 inactive_no_flow_19_3_0_0: flow_19_3_0_0 - 1000 edge_19_3_0_0 <= 0
 inactive_no_flow_19_4_0_0: flow_19_4_0_0 - 1000 edge_19_4_0_0 <= 0
 inactive_no_flow_19_5_0_0: flow_19_5_0_0 - 1000 edge_19_5_0_0 <= 0
 inactive_no_flow_19_8_0_0: flow_19_8_0_0 - 1000 edge_19_8_0_0 <= 0
 inactive_no_flow_19_9_0_0: flow_19_9_0_0 - 1000 edge_19_9_0_0 <= 0
 inactive_no_flow_19_11_0_0: flow_19_11_0_0 - 1000 edge_19_11_0_0 <= 0
 inactive_no_flow_19_12_0_0: flow_19_12_0_0 - 1000 edge_19_12_0_0 <= 0
 inactive_no_flow_19_13_0_0: flow_19_13_0_0 - 1000 edge_19_13_0_0 <= 0
 inactive_no_flow_19_15_0_0: flow_19_15_0_0 - 1000 edge_19_15_0_0 <= 0
 inactive_no_flow_19_16_0_0: flow_19_16_0_0 - 1000 edge_19_16_0_0 <= 0
 inactive_no_flow_19_17_0_0: flow_19_17_0_0 - 1000 edge_19_17_0_0 <= 0
 inactive_no_flow_19_18_0_0: flow_19_18_0_0 - 1000 edge_19_18_0_0 <= 0
 inactive_no_flow_19_19_0_0: flow_19_19_0_0 - 1000 edge_19_19_0_0 <= 0
 inactive_no_flow_19_20_0_0: flow_19_20_0_0 - 1000 edge_19_20_0_0 <= 0
 inactive_no_flow_19_21_0_0: flow_19_21_0_0 - 1000 edge_19_21_0_0 <= 0
 inactive_no_flow_19_22_0_0: flow_19_22_0_0 - 1000 edge_19_22_0_0 <= 0
 inactive_no_flow_19_24_0_0: flow_19_24_0_0 - 1000 edge_19_24_0_0 <= 0
 inactive_no_flow_20_21_0_0: flow_20_21_0_0 - 1000 edge_20_21_0_0 <= 0
 inactive_no_flow_20_22_0_0: flow_20_22_0_0 - 1000 edge_20_22_0_0 <= 0
 inactive_no_flow_21_3_0_0: flow_21_3_0_0 - 1000 edge_21_3_0_0 <= 0
 inactive_no_flow_21_11_0_0: flow_21_11_0_0 - 1000 edge_21_11_0_0 <= 0
 inactive_no_flow_21_15_0_0: flow_21_15_0_0 - 1000 edge_21_15_0_0 <= 0
 inactive_no_flow_21_16_0_0: flow_21_16_0_0 - 1000 edge_21_16_0_0 <= 0
 inactive_no_flow_21_17_0_0: flow_21_17_0_0 - 1000 edge_21_17_0_0 <= 0
 inactive_no_flow_21_18_0_0: flow_21_18_0_0 - 1000 edge_21_18_0_0 <= 0
 inactive_no_flow_21_19_0_0: flow_21_19_0_0 - 1000 edge_21_19_0_0 <= 0
 inactive_no_flow_21_20_0_0: flow_21_20_0_0 - 1000 edge_21_20_0_0 <= 0
 inactive_no_flow_21_22_0_0: flow_21_22_0_0 - 1000 edge_21_22_0_0 <= 0
 inactive_no_flow_21_24_0_0: flow_21_24_0_0 - 1000 edge_21_24_0_0 <= 0
 inactive_no_flow_22_1_0_0: flow_22_1_0_0 - 1000 edge_22_1_0_0 <= 0
 inactive_no_flow_22_17_0_0: flow_22_17_0_0 - 1000 edge_22_17_0_0 <= 0
 inactive_no_flow_22_18_0_0: flow_22_18_0_0 - 1000 edge_22_18_0_0 <= 0
 inactive_no_flow_22_19_0_0: flow_22_19_0_0 - 1000 edge_22_19_0_0 <= 0
 inactive_no_flow_22_20_0_0: flow_22_20_0_0 - 1000 edge_22_20_0_0 <= 0
 inactive_no_flow_22_21_0_0: flow_22_21_0_0 - 1000 edge_22_21_0_0 <= 0
 inactive_no_flow_22_24_0_0: flow_22_24_0_0 - 1000 edge_22_24_0_0 <= 0
 inactive_no_flow_24_22_0_0: flow_24_22_0_0 - 1000 edge_24_22_0_0 <= 0
Bounds
Binaries
 edge_0_1_0_0 edge_0_3_0_0 edge_0_5_0_0 edge_0_8_0_0 edge_0_11_0_0
 edge_0_15_0_0 edge_0_18_0_0 edge_0_19_0_0 edge_1_2_0_0 edge_1_3_0_0
 edge_1_4_0_0 edge_1_5_0_0 edge_1_12_0_0 edge_1_13_0_0 edge_1_16_0_0
 edge_1_19_0_0 edge_1_20_0_0 edge_1_24_0_0 edge_2_1_0_0 edge_2_4_0_0
 edge_2_5_0_0 edge_2_24_0_0 edge_3_1_0_0 edge_3_2_0_0 edge_3_4_0_0
 edge_3_5_0_0 edge_3_8_0_0 edge_3_11_0_0 edge_3_12_0_0 edge_3_13_0_0
 edge_3_15_0_0 edge_3_16_0_0 edge_3_17_0_0 edge_3_18_0_0 edge_3_19_0_0
 edge_3_20_0_0 edge_3_21_0_0 edge_3_22_0_0 edge_3_24_0_0 edge_4_8_0_0
 edge_5_1_0_0 edge_5_2_0_0 edge_5_3_0_0 edge_5_4_0_0 edge_5_8_0_0
 edge_5_11_0_0 edge_5_12_0_0 edge_5_13_0_0 edge_5_15_0_0 edge_5_16_0_0
 edge_5_17_0_0 edge_5_18_0_0 edge_5_19_0_0 edge_5_20_0_0 edge_5_21_0_0
 edge_8_1_0_0 edge_8_3_0_0 edge_8_4_0_0 edge_8_5_0_0 edge_8_11_0_0
 edge_8_12_0_0 edge_8_15_0_0 edge_8_16_0_0 edge_9_11_0_0 edge_9_12_0_0
 edge_9_13_0_0 edge_11_1_0_0 edge_11_3_0_0 edge_11_4_0_0 edge_11_5_0_0
 edge_11_8_0_0 edge_11_9_0_0 edge_11_12_0_0 edge_11_13_0_0 edge_11_15_0_0
 edge_11_16_0_0 edge_11_17_0_0 edge_11_18_0_0 edge_11_19_0_0 edge_11_21_0_0
 edge_11_22_0_0 edge_11_24_0_0 edge_12_13_0_0 edge_12_15_0_0 edge_13_17_0_0
 edge_13_19_0_0 edge_15_1_0_0 edge_15_3_0_0 edge_15_4_0_0 edge_15_5_0_0
 edge_15_8_0_0 edge_15_9_0_0 edge_15_11_0_0 edge_15_12_0_0 edge_15_13_0_0
 edge_15_16_0_0 edge_15_17_0_0 edge_15_18_0_0 edge_15_19_0_0 edge_15_20_0_0
 edge_15_21_0_0 edge_15_22_0_0 edge_15_24_0_0 edge_17_18_0_0 edge_18_3_0_0
 edge_18_11_0_0 edge_18_12_0_0 edge_18_13_0_0 edge_18_15_0_0 edge_18_16_0_0
 edge_18_17_0_0 edge_18_19_0_0 edge_18_20_0_0 edge_18_21_0_0 edge_18_22_0_0
 edge_18_24_0_0 edge_19_1_0_0 edge_19_3_0_0 edge_19_4_0_0 edge_19_5_0_0
 edge_19_8_0_0 edge_19_9_0_0 edge_19_11_0_0 edge_19_12_0_0 edge_19_13_0_0
 edge_19_15_0_0 edge_19_16_0_0 edge_19_17_0_0 edge_19_18_0_0 edge_19_19_0_0
 edge_19_20_0_0 edge_19_21_0_0 edge_19_22_0_0 edge_19_24_0_0 edge_20_21_0_0
 edge_20_22_0_0 edge_21_3_0_0 edge_21_11_0_0 edge_21_15_0_0 edge_21_16_0_0
 edge_21_17_0_0 edge_21_18_0_0 edge_21_19_0_0 edge_21_20_0_0 edge_21_22_0_0
 edge_21_24_0_0 edge_22_1_0_0 edge_22_17_0_0 edge_22_18_0_0 edge_22_19_0_0
 edge_22_20_0_0 edge_22_21_0_0 edge_22_24_0_0 edge_24_22_0_0
End
